c This is QMaxSAT 2017 based on 14.07
c This is Glucose 3.0
c This is MiniSat 2.2.0
c WARNING: for repeatability, setting FPU to use double precision
c card = mrwto, comp = 0, pmodel = 0, narr = 22, mct = 225, verb = 0
cr firstCPXsol 0 0 0
c top = 925144817
c |  Number of variables:    121032                                           |
c |  Number of clauses:      28074076                                         |
c |  Weight of hard clauses: 925144817                                        |
c |  Number of soft clauses: 1315776                                          |
c |  Number of unit soft clauses: 0                                           |
c |  Maximum Cardinality (by unit): 26285326012  (0           )               |
c last restart ## conflicts  :  4 25666 
o 1462862 | cpuTime 4.62203 s
c Sum of weights = 1194787546
c A number of soft clauses remained = 59808
c MRWTO encoding for Pseudo-Boolean Constraints
c sizeMax=65536
c No.0 Divisor=11	generated by pow1
c No.1 Divisor=11	generated by pow1
c No.2 Divisor=11	generated by pow1
c No.3 Divisor=11	generated by pow1
c No.4 Divisor=11	generated by pow1
c No.5 Divisor=11	generated by pow1
c p0= 11	p1= 11	p2= 11	p3= 11	p4= 11	p5= 11	
c number of digits = 7
c linkingVar[0].size = 11, linkingVar[1].size = 11, linkingVar[2].size = 11, linkingVar[3].size = 11, linkingVar[4].size = 11, linkingVar[5].size = 10, linkingVar[6].size = 1, 
c Pseudo-Boolean Constraints: 2547996 variables and 27089096 clauses
c Sum of weights = 1194787546
c A number of soft clauses remained = 59808
c MRWTO encoding for Pseudo-Boolean Constraints
c sizeMax=65536
c No.0 Divisor=11	generated by pow1
c No.1 Divisor=11	generated by pow1
c No.2 Divisor=11	generated by pow1
c No.3 Divisor=11	generated by pow1
c No.4 Divisor=11	generated by pow1
c No.5 Divisor=11	generated by pow1
c p0= 11	p1= 11	p2= 11	p3= 11	p4= 11	p5= 11	
c number of digits = 7
c linkingVar[0].size = 11, linkingVar[1].size = 11, linkingVar[2].size = 11, linkingVar[3].size = 11, linkingVar[4].size = 11, linkingVar[5].size = 10, linkingVar[6].size = 1, 
c Pseudo-Boolean Constraints: 2547996 variables and 27089096 clauses
c Sum of weights = 1194787546
c A number of soft clauses remained = 59808
c MRWTO encoding for Pseudo-Boolean Constraints
c sizeMax=65536
c No.0 Divisor=11	generated by pow1
c No.1 Divisor=11	generated by pow1
c No.2 Divisor=11	generated by pow1
c No.3 Divisor=11	generated by pow1
c No.4 Divisor=11	generated by pow1
c No.5 Divisor=11	generated by pow1
c p0= 11	p1= 11	p2= 11	p3= 11	p4= 11	p5= 11	
c number of digits = 7
c linkingVar[0].size = 11, linkingVar[1].size = 11, linkingVar[2].size = 11, linkingVar[3].size = 11, linkingVar[4].size = 11, linkingVar[5].size = 10, linkingVar[6].size = 1, 
c Pseudo-Boolean Constraints: 2547996 variables and 27089096 clauses
c Sum of weights = 1194787546
c A number of soft clauses remained = 59808
c MRWTO encoding for Pseudo-Boolean Constraints
c sizeMax=65536
c No.0 Divisor=11	generated by pow1
c No.1 Divisor=11	generated by pow1
c No.2 Divisor=11	generated by pow1
c No.3 Divisor=11	generated by pow1
c No.4 Divisor=11	generated by pow1
c No.5 Divisor=11	generated by pow1
c p0= 11	p1= 11	p2= 11	p3= 11	p4= 11	p5= 11	
c number of digits = 7
c linkingVar[0].size = 11, linkingVar[1].size = 11, linkingVar[2].size = 11, linkingVar[3].size = 11, linkingVar[4].size = 11, linkingVar[5].size = 10, linkingVar[6].size = 1, 
c Pseudo-Boolean Constraints: 2547996 variables and 27089096 clauses
c Sum of weights = 1194787546
c A number of soft clauses remained = 59808
c MRWTO encoding for Pseudo-Boolean Constraints
c sizeMax=65536
c No.0 Divisor=11	generated by pow1
c No.1 Divisor=11	generated by pow1
c No.2 Divisor=11	generated by pow1
c No.3 Divisor=11	generated by pow1
c No.4 Divisor=11	generated by pow1
c No.5 Divisor=11	generated by pow1
c p0= 11	p1= 11	p2= 11	p3= 11	p4= 11	p5= 11	
c number of digits = 7
c linkingVar[0].size = 11, linkingVar[1].size = 11, linkingVar[2].size = 11, linkingVar[3].size = 11, linkingVar[4].size = 11, linkingVar[5].size = 10, linkingVar[6].size = 1, 
c Pseudo-Boolean Constraints: 2547996 variables and 27089096 clauses
c Sum of weights = 1194787546
c A number of soft clauses remained = 59808
c MRWTO encoding for Pseudo-Boolean Constraints
c sizeMax=65536
c No.0 Divisor=11	generated by pow1
c No.1 Divisor=11	generated by pow1
c No.2 Divisor=11	generated by pow1
c No.3 Divisor=11	generated by pow1
c No.4 Divisor=11	generated by pow1
c No.5 Divisor=11	generated by pow1
c p0= 11	p1= 11	p2= 11	p3= 11	p4= 11	p5= 11	
c number of digits = 7
c linkingVar[0].size = 11, linkingVar[1].size = 11, linkingVar[2].size = 11, linkingVar[3].size = 11, linkingVar[4].size = 11, linkingVar[5].size = 10, linkingVar[6].size = 1, 
c Pseudo-Boolean Constraints: 2547996 variables and 27089096 clauses
c Sum of weights = 1194787546
c A number of soft clauses remained = 59808
c MRWTO encoding for Pseudo-Boolean Constraints
c sizeMax=65536
c No.0 Divisor=11	generated by pow1
c No.1 Divisor=11	generated by pow1
c No.2 Divisor=11	generated by pow1
c No.3 Divisor=11	generated by pow1
c No.4 Divisor=11	generated by pow1
c No.5 Divisor=11	generated by pow1
c p0= 11	p1= 11	p2= 11	p3= 11	p4= 11	p5= 11	
c number of digits = 7
c linkingVar[0].size = 11, linkingVar[1].size = 11, linkingVar[2].size = 11, linkingVar[3].size = 11, linkingVar[4].size = 11, linkingVar[5].size = 10, linkingVar[6].size = 1, 
c Pseudo-Boolean Constraints: 2547996 variables and 27089096 clauses
c Sum of weights = 1194787546
c A number of soft clauses remained = 59808
c MRWTO encoding for Pseudo-Boolean Constraints
c sizeMax=65536
c No.0 Divisor=11	generated by pow1
c No.1 Divisor=11	generated by pow1
c No.2 Divisor=11	generated by pow1
c No.3 Divisor=11	generated by pow1
c No.4 Divisor=11	generated by pow1
c No.5 Divisor=11	generated by pow1
c p0= 11	p1= 11	p2= 11	p3= 11	p4= 11	p5= 11	
c number of digits = 7
c linkingVar[0].size = 11, linkingVar[1].size = 11, linkingVar[2].size = 11, linkingVar[3].size = 11, linkingVar[4].size = 11, linkingVar[5].size = 10, linkingVar[6].size = 1, 
c Pseudo-Boolean Constraints: 2547996 variables and 27089096 clauses
c Sum of weights = 1194787546
c A number of soft clauses remained = 59808
c MRWTO encoding for Pseudo-Boolean Constraints
c sizeMax=65536
c No.0 Divisor=11	generated by pow1
c No.1 Divisor=11	generated by pow1
c No.2 Divisor=11	generated by pow1
c No.3 Divisor=11	generated by pow1
c No.4 Divisor=11	generated by pow1
c No.5 Divisor=11	generated by pow1
c p0= 11	p1= 11	p2= 11	p3= 11	p4= 11	p5= 11	
c number of digits = 7
c linkingVar[0].size = 11, linkingVar[1].size = 11, linkingVar[2].size = 11, linkingVar[3].size = 11, linkingVar[4].size = 11, linkingVar[5].size = 10, linkingVar[6].size = 1, 
c Pseudo-Boolean Constraints: 2547996 variables and 27089096 clauses
c Sum of weights = 1194787546
c A number of soft clauses remained = 59808
c MRWTO encoding for Pseudo-Boolean Constraints
c sizeMax=65536
c No.0 Divisor=11	generated by pow1
c No.1 Divisor=11	generated by pow1
c No.2 Divisor=11	generated by pow1
c No.3 Divisor=11	generated by pow1
c No.4 Divisor=11	generated by pow1
c No.5 Divisor=11	generated by pow1
c p0= 11	p1= 11	p2= 11	p3= 11	p4= 11	p5= 11	
c number of digits = 7
c linkingVar[0].size = 11, linkingVar[1].size = 11, linkingVar[2].size = 11, linkingVar[3].size = 11, linkingVar[4].size = 11, linkingVar[5].size = 10, linkingVar[6].size = 1, 
c Pseudo-Boolean Constraints: 2547996 variables and 27089096 clauses
c Sum of weights = 1194787546
c A number of soft clauses remained = 59808
c MRWTO encoding for Pseudo-Boolean Constraints
c sizeMax=65536
c No.0 Divisor=11	generated by pow1
c No.1 Divisor=11	generated by pow1
c No.2 Divisor=11	generated by pow1
c No.3 Divisor=11	generated by pow1
c No.4 Divisor=11	generated by pow1
c No.5 Divisor=11	generated by pow1
c p0= 11	p1= 11	p2= 11	p3= 11	p4= 11	p5= 11	
c number of digits = 7
c linkingVar[0].size = 11, linkingVar[1].size = 11, linkingVar[2].size = 11, linkingVar[3].size = 11, linkingVar[4].size = 11, linkingVar[5].size = 10, linkingVar[6].size = 1, 
c Pseudo-Boolean Constraints: 2547996 variables and 27089096 clauses
c Sum of weights = 1194787546
c A number of soft clauses remained = 59808
c MRWTO encoding for Pseudo-Boolean Constraints
c sizeMax=65536
c No.0 Divisor=11	generated by pow1
c No.1 Divisor=11	generated by pow1
c No.2 Divisor=11	generated by pow1
c No.3 Divisor=11	generated by pow1
c No.4 Divisor=11	generated by pow1
c No.5 Divisor=11	generated by pow1
c p0= 11	p1= 11	p2= 11	p3= 11	p4= 11	p5= 11	
c number of digits = 7
c linkingVar[0].size = 11, linkingVar[1].size = 11, linkingVar[2].size = 11, linkingVar[3].size = 11, linkingVar[4].size = 11, linkingVar[5].size = 10, linkingVar[6].size = 1, 
c Pseudo-Boolean Constraints: 2547996 variables and 27089096 clauses
c Sum of weights = 1194787546
c A number of soft clauses remained = 59808
c MRWTO encoding for Pseudo-Boolean Constraints
c sizeMax=65536
c No.0 Divisor=11	generated by pow1
c No.1 Divisor=11	generated by pow1
c No.2 Divisor=11	generated by pow1
c No.3 Divisor=11	generated by pow1
c No.4 Divisor=11	generated by pow1
c No.5 Divisor=11	generated by pow1
c p0= 11	p1= 11	p2= 11	p3= 11	p4= 11	p5= 11	
c number of digits = 7
c linkingVar[0].size = 11, linkingVar[1].size = 11, linkingVar[2].size = 11, linkingVar[3].size = 11, linkingVar[4].size = 11, linkingVar[5].size = 10, linkingVar[6].size = 1, 
c Pseudo-Boolean Constraints: 2547996 variables and 27089096 clauses
c Sum of weights = 1194787546
c A number of soft clauses remained = 59808
c MRWTO encoding for Pseudo-Boolean Constraints
c sizeMax=65536
c No.0 Divisor=11	generated by pow1
c No.1 Divisor=11	generated by pow1
c No.2 Divisor=11	generated by pow1
c No.3 Divisor=11	generated by pow1
c No.4 Divisor=11	generated by pow1
c No.5 Divisor=11	generated by pow1
c p0= 11	p1= 11	p2= 11	p3= 11	p4= 11	p5= 11	
c number of digits = 7
c linkingVar[0].size = 11, linkingVar[1].size = 11, linkingVar[2].size = 11, linkingVar[3].size = 11, linkingVar[4].size = 11, linkingVar[5].size = 10, linkingVar[6].size = 1, 
c Pseudo-Boolean Constraints: 2547996 variables and 27089096 clauses
c Sum of weights = 1194787546
c A number of soft clauses remained = 59808
c MRWTO encoding for Pseudo-Boolean Constraints
c sizeMax=65536
c No.0 Divisor=11	generated by pow1
c No.1 Divisor=11	generated by pow1
c No.2 Divisor=11	generated by pow1
c No.3 Divisor=11	generated by pow1
c No.4 Divisor=11	generated by pow1
c No.5 Divisor=11	generated by pow1
c p0= 11	p1= 11	p2= 11	p3= 11	p4= 11	p5= 11	
c number of digits = 7
c linkingVar[0].size = 11, linkingVar[1].size = 11, linkingVar[2].size = 11, linkingVar[3].size = 11, linkingVar[4].size = 11, linkingVar[5].size = 10, linkingVar[6].size = 1, 
c Pseudo-Boolean Constraints: 2547996 variables and 27089096 clauses
c Sum of weights = 1194787546
c A number of soft clauses remained = 59808
c MRWTO encoding for Pseudo-Boolean Constraints
c sizeMax=65536
c No.0 Divisor=11	generated by pow1
c No.1 Divisor=11	generated by pow1
c No.2 Divisor=11	generated by pow1
c No.3 Divisor=11	generated by pow1
c No.4 Divisor=11	generated by pow1
c No.5 Divisor=11	generated by pow1
c p0= 11	p1= 11	p2= 11	p3= 11	p4= 11	p5= 11	
c number of digits = 7
c linkingVar[0].size = 11, linkingVar[1].size = 11, linkingVar[2].size = 11, linkingVar[3].size = 11, linkingVar[4].size = 11, linkingVar[5].size = 10, linkingVar[6].size = 1, 
c Pseudo-Boolean Constraints: 2547996 variables and 27089096 clauses
c Sum of weights = 1194787546
c A number of soft clauses remained = 59808
c MRWTO encoding for Pseudo-Boolean Constraints
c sizeMax=65536
c No.0 Divisor=11	generated by pow1
c No.1 Divisor=11	generated by pow1
c No.2 Divisor=11	generated by pow1
c No.3 Divisor=11	generated by pow1
c No.4 Divisor=11	generated by pow1
c No.5 Divisor=11	generated by pow1
c p0= 11	p1= 11	p2= 11	p3= 11	p4= 11	p5= 11	
c number of digits = 7
c linkingVar[0].size = 11, linkingVar[1].size = 11, linkingVar[2].size = 11, linkingVar[3].size = 11, linkingVar[4].size = 11, linkingVar[5].size = 10, linkingVar[6].size = 1, 
c Pseudo-Boolean Constraints: 2547996 variables and 27089096 clauses
c Sum of weights = 1194787546
c A number of soft clauses remained = 59808
c MRWTO encoding for Pseudo-Boolean Constraints
c